c1_10_9

VEHICLE
NUMBER   CAPACITY
250     200

CUSTOMER
CUST NO. XCOORD.  YCOORD.  DEMAND  READY TIME DUE DATE  SERVICE TIME

0   250    250     0     0    1824     0
490 21 488 10 516 876 90
690 18 462 20 873 1233 90
664 18 484 10 329 689 90
489 21 487 10 425 785 90
436 24 492 10 1043 1403 90
866 12 463 20 596 956 90
970 15 457 20 318 678 90
711 12 451 20 311 671 90
49 21 485 30 333 693 90
701 25 499 10 1000 1360 90
387 26 490 10 1046 1406 90
79 22 483 30 325 685 90
731 8 497 40 803 1163 90
403 13 455 10 313 673 90
614 17 459 10 1057 1417 90
845 17 458 10 1062 1422 90
729 14 459 20 411 771 90
887 16 463 20 690 1050 90
16 20 488 10 607 967 90
413 13 459 20 502 862 90
669 20 489 10 698 1058 90
812 16 460 20 966 1326 90
408 16 462 10 781 1141 90
375 16 497 20 901 1261 90
